certificates/rado_a9_c20_N17.cnf
c Rad2 upper bound instance: x1 + 9*x2 - x3 = 20, interval [1,17]
p cnf 17 64
1 3 8 0
-1 -3 -8 0
1 4 17 0
-1 -4 -17 0
2 3 9 0
-2 -3 -9 0
1 2 3 0
-1 -2 -3 0
3 10 0
-3 -10 0
2 4 0
-2 -4 0
3 4 11 0
-3 -4 -11 0
2 3 5 0
-2 -3 -5 0
3 5 12 0
-3 -5 -12 0
2 4 6 0
-2 -4 -6 0
3 6 13 0
-3 -6 -13 0
2 5 7 0
-2 -5 -7 0
3 7 14 0
-3 -7 -14 0
2 6 8 0
-2 -6 -8 0
3 8 15 0
-3 -8 -15 0
2 7 9 0
-2 -7 -9 0
3 9 16 0
-3 -9 -16 0
2 8 10 0
-2 -8 -10 0
3 10 17 0
-3 -10 -17 0
2 9 11 0
-2 -9 -11 0
1 12 0
-1 -12 0
2 10 12 0
-2 -10 -12 0
1 2 13 0
-1 -2 -13 0
2 11 13 0
-2 -11 -13 0
1 3 14 0
-1 -3 -14 0
2 12 14 0
-2 -12 -14 0
1 4 15 0
-1 -4 -15 0
2 13 15 0
-2 -13 -15 0
1 5 16 0
-1 -5 -16 0
2 14 16 0
-2 -14 -16 0
1 6 17 0
-1 -6 -17 0
2 15 17 0
-2 -15 -17 0
