certificates/rado_a9_c20_N17.drat
-15 -17 0
d -15 -2 -17 0
-2 -3 15 0
-3 -16 15 0
3 -17 0
-17 0
-2 15 0
d -2 -3 15 0
15 0
-2 -10 0
-10 0
3 0
-8 0
2 0
-4 0
-13 0
-9 0
-5 0
-1 0
0
